\ Model Routes
\ LP format - for model browsing. Use MPS format to capture full model detail.
Maximize
  - 191.7153353028244 R{0,0} + 623.2046552982704 R{0,1}
   + 623.2046552982704 R{0,2} - 249.2301939667805 R{0,3}
   - 37.65529250152403 R{0,4} + 633.0024468603488 R{0,5}
   + 568.2280287393723 R{0,6} + 1107.869356369669 R{0,7}
   + 1029.943244018977 R{0,8} + 433.5158152086345 R{0,9}
   + 27.03076311115086 R{0,10} + 827.8992369343669 R{0,11}
   - 256.140831891889 R{1,0} + 41.44651618699046 R{1,1}
   + 468.947430945026 R{1,2} + 290.3833328672779 R{1,3}
   + 776.9296196276225 R{1,4} + 569.9574983671715 R{1,5}
   + 586.1533044762227 R{1,6} + 77.07876721426271 R{1,7}
   + 17.17637251389783 R{1,8} + 199.4676647163915 R{1,9}
   + 720.5304270919129 R{1,10} + 1198.881248318718 R{2,0}
   + 1198.881248318718 R{2,1} - 278.4443928850388 R{2,2}
   + 328.7348515371482 R{2,3} + 1425.441843899394 R{2,4}
   + 1425.441843899394 R{2,5} + 670.1002666830889 R{2,6}
   + 832.465065802254 R{2,7} + 1773.045985187592 R{2,8}
   + 473.9263938819845 R{2,9} + 1580.44148198127 R{2,10}
   + 671.2748491600962 R{2,11} + 1766.807259045335 R{2,12}
   + 832.465065802254 R{2,13} + 775.6918497929551 R{2,14}
   + 1311.774221270915 R{2,15} + 1683.44724025901 R{2,16}
   - 260.2482995389823 R{3,0} + 761.0503024230281 R{3,1}
   + 1233.340931142694 R{3,2} + 1511.940408249424 R{3,3}
   + 511.0906467420833 R{3,4} + 606.8822921614831 R{3,5}
   + 632.1870916017147 R{3,6} + 820.6007053984952 R{3,7}
   + 470.6058605275366 R{3,8} + 1343.351625938808 R{3,9}
   + 867.2493795930418 R{3,10} + 1351.940837413142 R{3,11}
   - 242.5208875955131 R{4,0} + 1138.167312495808 R{4,1}
   + 1454.744895582121 R{4,2} + 1664.142453998464 R{4,3}
   + 1050.010579804034 R{4,4} + 879.1176167407207 R{4,5}
   + 1494.058157149388 R{4,6} + 1376.769127196724 R{4,7}
   + 1084.535017947314 R{4,8} + 1383.390221671828 R{4,9}
   - 231.9775664337766 R{5,0} + 251.2011413408645 R{5,1}
   + 835.6653627301428 R{5,2} + 574.0156773565197 R{5,3}
   + 653.2247660009809 R{5,4} + 709.7960015050667 R{5,5}
   + 251.2011413408645 R{5,6} + 899.5036251719462 R{5,7}
   + 426.1444027885019 R{5,8} + 1078.983779079718 R{5,9}
   + 506.2995526473015 R{5,10} + 327.9077417212777 R{5,11}
   + 784.8494553836007 R{5,12} - 231.1436095783099 R{6,0}
   + 940.1324219498438 R{6,1} + 1455.724005865381 R{6,2}
   + 961.4707093360598 R{6,3} + 1387.881406086246 R{6,4}
   + 1675.842479969435 R{6,5} + 1159.420399350667 R{6,6}
   + 698.7478252298069 R{6,7} + 784.6928360719213 R{6,8}
   + 887.2534708015535 R{6,9} + 1824.134532397198 R{6,10}
   + 907.4618972805013 R{6,11} + 1783.85085625583 R{6,12}
   + 1865.260957318163 R{6,13} + 1358.816118206676 R{6,14}
Subject To
 R00: R{0,0} <= 1
 R01: R{0,1} <= 1
 R02: R{0,2} <= 1
 R03: R{0,3} <= 1
 R04: R{0,4} <= 1
 R05: R{0,5} <= 1
 R06: R{0,6} <= 1
 R07: R{0,7} <= 1
 R08: R{0,8} <= 1
 R09: R{0,9} <= 1
 R010: R{0,10} <= 1
 R011: R{0,11} <= 1
 R012: R{1,0} <= 1
 R013: R{1,1} <= 1
 R014: R{1,2} <= 1
 R015: R{1,3} <= 1
 R016: R{1,4} <= 1
 R017: R{1,5} <= 1
 R018: R{1,6} <= 1
 R019: R{1,7} <= 1
 R020: R{1,8} <= 1
 R021: R{1,9} <= 1
 R022: R{1,10} <= 1
 R023: R{2,0} <= 1
 R024: R{2,1} <= 1
 R025: R{2,2} <= 1
 R026: R{2,3} <= 1
 R027: R{2,4} <= 1
 R028: R{2,5} <= 1
 R029: R{2,6} <= 1
 R030: R{2,7} <= 1
 R031: R{2,8} <= 1
 R032: R{2,9} <= 1
 R033: R{2,10} <= 1
 R034: R{2,11} <= 1
 R035: R{2,12} <= 1
 R036: R{2,13} <= 1
 R037: R{2,14} <= 1
 R038: R{2,15} <= 1
 R039: R{2,16} <= 1
 R040: R{3,0} <= 1
 R041: R{3,1} <= 1
 R042: R{3,2} <= 1
 R043: R{3,3} <= 1
 R044: R{3,4} <= 1
 R045: R{3,5} <= 1
 R046: R{3,6} <= 1
 R047: R{3,7} <= 1
 R048: R{3,8} <= 1
 R049: R{3,9} <= 1
 R050: R{3,10} <= 1
 R051: R{3,11} <= 1
 R052: R{4,0} <= 1
 R053: R{4,1} <= 1
 R054: R{4,2} <= 1
 R055: R{4,3} <= 1
 R056: R{4,4} <= 1
 R057: R{4,5} <= 1
 R058: R{4,6} <= 1
 R059: R{4,7} <= 1
 R060: R{4,8} <= 1
 R061: R{4,9} <= 1
 R062: R{5,0} <= 1
 R063: R{5,1} <= 1
 R064: R{5,2} <= 1
 R065: R{5,3} <= 1
 R066: R{5,4} <= 1
 R067: R{5,5} <= 1
 R068: R{5,6} <= 1
 R069: R{5,7} <= 1
 R070: R{5,8} <= 1
 R071: R{5,9} <= 1
 R072: R{5,10} <= 1
 R073: R{5,11} <= 1
 R074: R{5,12} <= 1
 R075: R{6,0} <= 1
 R076: R{6,1} <= 1
 R077: R{6,2} <= 1
 R078: R{6,3} <= 1
 R079: R{6,4} <= 1
 R080: R{6,5} <= 1
 R081: R{6,6} <= 1
 R082: R{6,7} <= 1
 R083: R{6,8} <= 1
 R084: R{6,9} <= 1
 R085: R{6,10} <= 1
 R086: R{6,11} <= 1
 R087: R{6,12} <= 1
 R088: R{6,13} <= 1
 R089: R{6,14} <= 1
 R1_0: R{0,0} + R{0,1} + R{0,2} + R{0,3} + R{0,4} + R{0,5} + R{0,6}
   + R{0,7} + R{0,8} + R{0,9} + R{0,10} + R{0,11} <= 1
 R1_1: R{1,0} + R{1,1} + R{1,2} + R{1,3} + R{1,4} + R{1,5} + R{1,6}
   + R{1,7} + R{1,8} + R{1,9} + R{1,10} <= 1
 R1_2: R{2,0} + R{2,1} + R{2,2} + R{2,3} + R{2,4} + R{2,5} + R{2,6}
   + R{2,7} + R{2,8} + R{2,9} + R{2,10} + R{2,11} + R{2,12} + R{2,13}
   + R{2,14} + R{2,15} + R{2,16} <= 1
 R1_3: R{3,0} + R{3,1} + R{3,2} + R{3,3} + R{3,4} + R{3,5} + R{3,6}
   + R{3,7} + R{3,8} + R{3,9} + R{3,10} + R{3,11} <= 1
 R1_4: R{4,0} + R{4,1} + R{4,2} + R{4,3} + R{4,4} + R{4,5} + R{4,6}
   + R{4,7} + R{4,8} + R{4,9} <= 1
 R1_5: R{5,0} + R{5,1} + R{5,2} + R{5,3} + R{5,4} + R{5,5} + R{5,6}
   + R{5,7} + R{5,8} + R{5,9} + R{5,10} + R{5,11} + R{5,12} <= 1
 R1_6: R{6,0} + R{6,1} + R{6,2} + R{6,3} + R{6,4} + R{6,5} + R{6,6}
   + R{6,7} + R{6,8} + R{6,9} + R{6,10} + R{6,11} + R{6,12} + R{6,13}
   + R{6,14} <= 1
 R2_0: <= 0
 R2_1: 10 R{0,8} + 10 R{2,3} + 10 R{2,4} + 10 R{2,5} + 10 R{2,6}
   + 10 R{2,8} + 10 R{2,10} + 10 R{2,12} + 10 R{2,14} + 10 R{2,16}
   + 10 R{5,5} + 10 R{5,7} + 10 R{5,11} <= 10
 R2_2: <= 0
 R2_3: 4 R{2,3} + 4 R{2,4} + 4 R{2,5} + 4 R{3,2} + 4 R{3,3} + 4 R{3,9}
   + 4 R{3,11} <= 4
 R2_4: <= 0
 R2_5: 5 R{0,4} + 5 R{0,5} <= 5
 R2_6: 10 R{1,1} + 10 R{1,3} + 10 R{1,4} + 10 R{2,10} + 10 R{5,8}
   + 10 R{5,9} + 10 R{5,10} <= 10
 R2_7: 6 R{1,1} + 6 R{1,2} + 6 R{1,3} + 6 R{1,4} + 6 R{1,7} + 6 R{1,8}
   <= 6
 R2_8: <= 0
 R2_9: 12 R{4,1} + 12 R{4,2} + 12 R{4,3} + 12 R{4,4} + 12 R{4,5}
   + 12 R{4,9} <= 12
 R2_10: 8 R{6,1} + 8 R{6,2} + 8 R{6,4} + 8 R{6,5} + 8 R{6,12} <= 8
 R2_11: <= 0
 R2_12: <= 0
 R2_13: <= 0
 R2_14: <= 0
 R2_15: 11 R{0,0} + 11 R{0,1} + 11 R{0,2} + 11 R{4,1} + 11 R{4,2}
   + 11 R{4,4} <= 11
 R2_16: 5 R{0,11} <= 5
 R2_17: <= 0
 R2_18: <= 0
 R2_19: 11 R{0,7} + 11 R{0,9} + 11 R{1,5} + 11 R{1,6} + 11 R{2,8}
   + 11 R{2,11} + 11 R{2,16} + 11 R{3,1} + 11 R{3,2} + 11 R{3,3}
   + 11 R{3,4} + 11 R{3,5} + 11 R{3,7} + 11 R{3,9} + 11 R{4,6} + 11 R{4,7}
   <= 11
 R2_20: 13 R{1,6} + 13 R{2,6} + 13 R{2,12} + 13 R{2,14} + 13 R{4,1}
   + 13 R{4,2} + 13 R{4,3} + 13 R{5,3} <= 13
 R2_21: <= 0
 R2_22: 10 R{4,6} + 10 R{4,7} + 10 R{4,8} <= 10
 R2_23: 14 R{0,1} + 14 R{0,2} + 14 R{0,6} + 14 R{0,11} + 14 R{2,0}
   + 14 R{2,1} + 14 R{2,7} + 14 R{2,13} + 14 R{2,15} + 14 R{4,7} <= 14
 R2_24: 10 R{1,5} + 10 R{1,7} + 10 R{1,9} + 10 R{1,10} + 10 R{3,1}
   + 10 R{3,2} + 10 R{3,3} + 10 R{3,6} + 10 R{3,7} + 10 R{3,8} + 10 R{3,9}
   + 10 R{3,10} + 10 R{3,11} <= 10
 R2_25: 13 R{3,9} + 13 R{3,11} + 13 R{4,1} + 13 R{4,2} + 13 R{4,4}
   + 13 R{4,5} + 13 R{4,9} <= 13
 R2_26: 6 R{5,1} + 6 R{5,2} + 6 R{5,3} + 6 R{5,4} + 6 R{5,6} + 6 R{5,7}
   + 6 R{5,8} + 6 R{5,9} + 6 R{5,12} <= 6
 R2_27: 5 R{2,4} + 5 R{2,5} + 5 R{2,8} + 5 R{2,10} + 5 R{2,12} + 5 R{2,16}
   + 5 R{6,1} + 5 R{6,2} + 5 R{6,3} + 5 R{6,4} + 5 R{6,5} + 5 R{6,6}
   + 5 R{6,7} + 5 R{6,8} + 5 R{6,9} + 5 R{6,10} + 5 R{6,11} + 5 R{6,12}
   + 5 R{6,13} + 5 R{6,14} <= 5
 R2_28: <= 0
 R2_29: <= 0
 R2_30: <= 0
 R2_31: <= 0
 R2_32: 7 R{5,1} + 7 R{5,2} + 7 R{5,3} + 7 R{5,6} + 7 R{5,8} + 7 R{5,9}
   + 7 R{5,10} + 7 R{5,12} <= 7
 R2_33: 12 R{1,8} + 12 R{3,7} + 12 R{3,8} + 12 R{3,10} <= 12
 R2_34: 5 R{3,3} + 5 R{3,5} + 5 R{3,11} <= 5
 R2_35: <= 0
 R2_36: <= 0
 R2_37: 5 R{3,1} + 5 R{3,2} + 5 R{3,3} + 5 R{3,4} + 5 R{3,5} + 5 R{3,6}
   + 5 R{3,7} + 5 R{3,8} + 5 R{3,9} + 5 R{3,11} <= 5
 R2_38: <= 0
 R2_39: <= 0
 R2_40: 15 R{2,3} + 15 R{2,4} + 15 R{2,5} + 15 R{2,6} + 15 R{2,8}
   + 15 R{2,10} + 15 R{2,11} + 15 R{2,12} + 15 R{2,14} + 15 R{2,16} <= 15
 R2_41: 5 R{2,15} + 5 R{3,2} + 5 R{3,3} + 5 R{3,6} + 5 R{3,9} + 5 R{3,11}
   + 5 R{4,3} + 5 R{4,5} + 5 R{6,12} <= 5
 R2_42: 4 R{2,3} + 4 R{2,4} + 4 R{2,5} + 4 R{2,8} + 4 R{2,11} + 4 R{2,14}
   <= 4
 R2_43: <= 0
 R2_44: <= 0
 R2_45: <= 0
 R2_46: 9 R{4,6} + 9 R{4,8} + 9 R{4,9} <= 9
 R2_47: 7 R{5,1} + 7 R{5,2} + 7 R{5,4} + 7 R{5,6} + 7 R{5,8} <= 7
 R2_48: 4 R{4,1} + 4 R{4,2} + 4 R{4,3} + 4 R{4,4} + 4 R{4,5} + 4 R{4,9}
   <= 4
 R2_49: <= 0
 R2_50: <= 0
 R2_51: 11 R{1,5} + 11 R{1,9} + 11 R{4,1} + 11 R{4,2} + 11 R{4,3}
   + 11 R{4,4} + 11 R{4,6} + 11 R{4,8} + 11 R{4,9} <= 11
 R2_52: 10 R{4,6} + 10 R{4,7} + 10 R{4,8} <= 10
 R2_53: 13 R{4,1} <= 13
 R2_54: 9 R{3,1} + 9 R{3,2} + 9 R{3,3} + 9 R{3,4} + 9 R{3,6} + 9 R{3,11}
   <= 9
 R2_55: 8 R{4,8} + 8 R{6,1} + 8 R{6,2} + 8 R{6,3} + 8 R{6,4} + 8 R{6,5}
   + 8 R{6,6} + 8 R{6,7} + 8 R{6,8} + 8 R{6,9} + 8 R{6,10} + 8 R{6,12}
   + 8 R{6,13} + 8 R{6,14} <= 8
 R2_56: 6 R{2,0} + 6 R{2,1} + 6 R{2,9} + 6 R{2,15} + 6 R{4,2} + 6 R{4,3}
   + 6 R{4,4} + 6 R{4,9} + 6 R{6,5} + 6 R{6,6} + 6 R{6,7} + 6 R{6,13} <= 6
 R2_57: <= 0
 R2_58: <= 0
 R2_59: 10 R{6,9} <= 10
 R2_60: <= 0
 R2_61: 9 R{2,7} + 9 R{2,13} + 9 R{4,6} + 9 R{4,7} + 9 R{4,8} <= 9
 R2_62: <= 0
 R2_63: <= 0
 R2_64: <= 0
 R2_65: 5 R{2,0} + 5 R{2,1} + 5 R{6,1} + 5 R{6,2} + 5 R{6,3} + 5 R{6,4}
   + 5 R{6,8} + 5 R{6,10} + 5 R{6,11} + 5 R{6,12} + 5 R{6,13} + 5 R{6,14}
   <= 5
 R2_66: 7 R{6,1} + 7 R{6,3} + 7 R{6,8} + 7 R{6,9} <= 7
 R2_67: 3 R{0,1} + 3 R{0,2} + 3 R{0,6} + 3 R{0,11} + 3 R{2,0} + 3 R{2,1}
   + 3 R{2,7} + 3 R{2,9} + 3 R{2,13} + 3 R{2,15} + 3 R{6,6} + 3 R{6,10}
   + 3 R{6,11} <= 3
 R2_68: 6 R{6,1} + 6 R{6,2} + 6 R{6,3} + 6 R{6,4} + 6 R{6,5} + 6 R{6,6}
   + 6 R{6,10} + 6 R{6,11} + 6 R{6,12} + 6 R{6,13} + 6 R{6,14} <= 6
 R2_69: 7 R{1,3} + 7 R{4,1} + 7 R{4,2} + 7 R{4,3} + 7 R{4,4} + 7 R{4,5}
   + 7 R{4,6} + 7 R{4,7} + 7 R{4,9} <= 7
 R2_70: 11 R{1,1} + 11 R{1,2} <= 11
 R2_71: 7 R{3,1} + 7 R{3,2} + 7 R{3,3} + 7 R{3,4} + 7 R{3,5} + 7 R{3,7}
   + 7 R{3,8} + 7 R{3,9} + 7 R{3,11} <= 7
 R2_72: <= 0
 R2_73: <= 0
 R2_74: 5 R{5,1} + 5 R{5,6} <= 5
 R2_75: 8 R{6,1} + 8 R{6,2} + 8 R{6,3} + 8 R{6,5} + 8 R{6,8} + 8 R{6,9}
   + 8 R{6,10} + 8 R{6,11} + 8 R{6,13} <= 8
 R2_76: 12 R{0,4} + 12 R{0,5} + 12 R{0,7} + 12 R{0,8} + 12 R{0,9}
   + 12 R{0,10} + 12 R{2,11} + 12 R{5,10} + 12 R{5,11} <= 12
 R2_77: 7 R{0,5} + 7 R{0,7} + 7 R{0,8} + 7 R{1,2} + 7 R{1,4} + 7 R{1,10}
   + 7 R{2,4} + 7 R{2,5} + 7 R{2,8} + 7 R{2,10} + 7 R{2,12} + 7 R{2,16}
   + 7 R{3,10} + 7 R{5,2} + 7 R{5,4} + 7 R{5,5} + 7 R{5,7} + 7 R{5,9}
   + 7 R{5,12} + 7 R{6,2} + 7 R{6,4} + 7 R{6,5} + 7 R{6,10} + 7 R{6,12}
   + 7 R{6,13} + 7 R{6,14} <= 7
Bounds
End
